NAME : rand299566
COMMENT: random generated with id 299566
TYPE : TSP
DIMENSION : 6
EDGE_WEIGHT_TYPE : EUC_2D
NODE_COORD_SECTION
1 4.583004 0.019864
2 2.443695 1.250408
3 0.151209 2.778956
4 3.728068 3.905096
5 0.167927 1.082887
6 3.595724 4.470830
EOF
